proyfinal/src/viki/013/experimentInOfficeAgust.take6.output/b71cb5e3-e3a5-4d2b-b54f-de9b6a7cafb5.als.dat
{'cnf.clauses': '118081',
 'cnf.totvars': '69608',
 'conflict literals': '278',
 'conflicts': '43',
 'decisions': '2579',
 'memused.mb': '16.16',
 'outcome': 'UNSAT',
 'propagations': '86568',
 'restarts': '1',
 'solver.msecs': 33,
 'task.msecs': 80}
