proyfinal/src/viki/013/experimentInOfficeAgust.take6.output/b71cb5e3-e3a5-4d2b-b54f-de9b6a7cafb5.als.out
Reading from standard input... Use '--help' for help.
============================[ Problem Statistics ]=============================
|                                                                             |
|  Number of variables:         69608                                         |
|  Number of clauses:          118081                                         |
|  Parse time:                   0.02 s                                       |
|                                                                             |
============================[ Search Statistics ]==============================
| Conflicts |          ORIGINAL         |          LEARNT          | Progress |
|           |    Vars  Clauses Literals |    Limit  Clauses Lit/Cl |          |
===============================================================================
===============================================================================
restarts              : 1
conflicts             : 43             (1289 /sec)
decisions             : 2579           (0.00 % random) (77310 /sec)
propagations          : 86568          (2595042 /sec)
conflict literals     : 278            (17.51 % deleted)
Memory used           : 16.16 MB
CPU time              : 0.033359 s

UNSATISFIABLE
